c File: instances/18_0.15_2.col
c
c Description: Random graph of size 18 vertices and P(0.15000000000000002) of edges between any two vertices.
p col 18 153
e 1 10
e 1 11
e 2 9
e 2 11
e 3 6
e 4 16
e 5 7
e 5 9
e 5 16
e 6 8
e 6 10
e 6 14
e 6 18
e 7 10
e 7 16
e 11 16
e 11 18
e 12 14
e 12 17
e 12 18
e 13 18
e 16 17
e 16 18